c description: Random 3-CNF over 15 variables and 65 clauses
c generator: CNFgen (0.9.0)
c copyright: (C) 2012-2020 Massimo Lauria <massimo.lauria@uniroma1.it>
c url: https://massimolauria.net/cnfgen
c
p cnf 15 65
-2 -3 9 0
-7 -11 -15 0
-4 9 15 0
13 -14 -15 0
-7 10 14 0
-5 -10 14 0
-3 -4 -6 0
6 12 14 0
3 14 -15 0
2 10 13 0
5 -6 -9 0
3 12 -15 0
-5 -7 -10 0
-9 -10 14 0
3 4 -9 0
3 5 -15 0
-2 -3 -15 0
2 -4 -12 0
-3 6 -9 0
-3 8 -13 0
4 -5 6 0
-2 -6 -7 0
-6 -8 12 0
3 8 15 0
1 -3 -11 0
1 -5 11 0
2 6 -10 0
-6 9 -15 0
-3 11 13 0
4 10 -14 0
11 -13 14 0
-8 9 11 0
-9 -14 -15 0
-2 -9 10 0
6 11 13 0
1 -5 13 0
-4 -6 -7 0
2 -3 15 0
-2 6 -11 0
7 -12 -15 0
-3 -7 -9 0
8 9 14 0
1 -6 13 0
1 3 5 0
1 2 11 0
-11 -12 13 0
4 6 -14 0
-3 6 8 0
-1 -4 12 0
7 -13 14 0
3 14 15 0
2 9 -13 0
6 -8 -14 0
5 -6 -11 0
2 3 14 0
-5 8 10 0
2 -9 13 0
6 10 -15 0
2 -8 12 0
1 6 -12 0
2 -7 -15 0
8 13 -14 0
7 9 -12 0
8 14 15 0
-2 -14 15 0